certificates/rado_a15_c133_N30.drat
-28 -29 -30 0
-27 -29 0
14 16 27 0
-9 13 -10 0
27 -30 0
9 -27 0
-30 0
-27 0
10 0
-9 0
7 0
11 0
28 0
29 0
25 0
-1 0
-24 0
0
